(set-info :source |printed by MathSAT|)
(declare-fun |!{$(in_main#0)<a.1>}| () (Array Int Int))
(declare-fun |!{$(in_main#0)<a.1>}.next| () (Array Int Int))
(declare-fun |!{$(in_main#0)<b.2>}| () (Array Int Int))
(declare-fun |!{$(in_main#0)<b.2>}.next| () (Array Int Int))
(declare-fun |!{$(in_main#0)<N>}| () Int)
(declare-fun |!{$(in_main#0)<N>}.next| () Int)
(declare-fun |!{$(in_main#0)<f>}| () Int)
(declare-fun |!{$(in_main#0)<f>}.next| () Int)
(declare-fun |!{$(in_main#0)<i>}| () Int)
(declare-fun |!{$(in_main#0)<i>}.next| () Int)
(declare-fun |!{$(in_main#0)<$(in___VERIFIER_nondet_int#0)<h#<__VERIFIER_nondet_int.return>>>}| () Int)
(declare-fun |!{$(in_main#0)<$(in___VERIFIER_nondet_int#1)<h#<__VERIFIER_nondet_int.return>>>}| () Int)
(declare-fun !pc () Int)
(declare-fun !pc.next () Int)
(declare-fun |%{$(in_main#0)<f>}#1| () Int)
(declare-fun |%{$(in_main#0)<a.1>}#1| () (Array Int Int))
(declare-fun |%{$(in_main#0)<b.2>}#1| () (Array Int Int))
(declare-fun |%{$(in_main#0)<f>}#2| () Int)
(declare-fun |%{$(in_main#0)<f>}#4| () Int)
(declare-fun |%{$(in_main#0)<b.2>}#2| () (Array Int Int))
(define-fun .def_33 () Int (! !pc :next !pc.next))
(define-fun .def_36 () Bool (! (= .def_33 2) :init true))
(define-fun .def_186 () Bool (= .def_33 30))
(define-fun .def_170 () Bool (= !pc.next 50))
(define-fun .def_189 () Bool (and .def_170 .def_186))
(define-fun .def_14 () Int (! |!{$(in_main#0)<f>}| :next |!{$(in_main#0)<f>}.next|))
(define-fun .def_66 () Bool (= .def_14 |!{$(in_main#0)<f>}.next|))
(define-fun .def_12 () Int (! |!{$(in_main#0)<N>}| :next |!{$(in_main#0)<N>}.next|))
(define-fun .def_64 () Bool (= .def_12 |!{$(in_main#0)<N>}.next|))
(define-fun .def_10 () (Array Int Int) (! |!{$(in_main#0)<b.2>}| :next |!{$(in_main#0)<b.2>}.next|))
(define-fun .def_62 () Bool (= .def_10 |!{$(in_main#0)<b.2>}.next|))
(define-fun .def_8 () (Array Int Int) (! |!{$(in_main#0)<a.1>}| :next |!{$(in_main#0)<a.1>}.next|))
(define-fun .def_61 () Bool (= .def_8 |!{$(in_main#0)<a.1>}.next|))
(define-fun .def_63 () Bool (and .def_61 .def_62))
(define-fun .def_65 () Bool (and .def_63 .def_64))
(define-fun .def_67 () Bool (and .def_65 .def_66))
(define-fun .def_55 () Bool (= |!{$(in_main#0)<i>}.next| 0))
(define-fun .def_184 () Bool (and .def_55 .def_67))
(define-fun .def_16 () Int (! |!{$(in_main#0)<i>}| :next |!{$(in_main#0)<i>}.next|))
(define-fun .def_74 () Bool (<= .def_12 .def_16))
(define-fun .def_185 () Bool (and .def_74 .def_184))
(define-fun .def_190 () Bool (and .def_185 .def_189))
(define-fun .def_58 () Bool (= !pc.next 30))
(define-fun .def_187 () Bool (and .def_58 .def_186))
(define-fun .def_177 () (Array Int Int) (store .def_8 .def_16 |!{$(in_main#0)<$(in___VERIFIER_nondet_int#1)<h#<__VERIFIER_nondet_int.return>>>}|))
(define-fun .def_178 () Bool (= |!{$(in_main#0)<a.1>}.next| .def_177))
(define-fun .def_179 () Bool (and .def_62 .def_178))
(define-fun .def_180 () Bool (and .def_64 .def_179))
(define-fun .def_181 () Bool (and .def_66 .def_180))
(define-fun .def_115 () Int (* (- 1) |!{$(in_main#0)<i>}.next|))
(define-fun .def_116 () Int (+ .def_16 .def_115))
(define-fun .def_117 () Bool (= .def_116 (- 1)))
(define-fun .def_182 () Bool (and .def_117 .def_181))
(define-fun .def_75 () Bool (not .def_74))
(define-fun .def_183 () Bool (and .def_75 .def_182))
(define-fun .def_188 () Bool (and .def_183 .def_187))
(define-fun .def_191 () Bool (or .def_188 .def_190))
(define-fun .def_169 () Bool (= .def_33 50))
(define-fun .def_132 () Bool (= !pc.next 75))
(define-fun .def_173 () Bool (and .def_132 .def_169))
(define-fun .def_164 () Bool (= |!{$(in_main#0)<f>}.next| 1))
(define-fun .def_165 () Bool (and .def_65 .def_164))
(define-fun .def_166 () Bool (and .def_55 .def_165))
(define-fun .def_167 () Bool (and .def_74 .def_166))
(define-fun .def_174 () Bool (and .def_167 .def_173))
(define-fun .def_171 () Bool (and .def_169 .def_170))
(define-fun .def_157 () Bool (= |!{$(in_main#0)<b.2>}.next| |%{$(in_main#0)<b.2>}#2|))
(define-fun .def_158 () Bool (and .def_61 .def_157))
(define-fun .def_159 () Bool (and .def_64 .def_158))
(define-fun .def_160 () Bool (and .def_66 .def_159))
(define-fun .def_161 () Bool (and .def_117 .def_160))
(define-fun .def_145 () (Array Int Int) (store .def_10 .def_16 0))
(define-fun .def_152 () Bool (= .def_145 |%{$(in_main#0)<b.2>}#2|))
(define-fun .def_76 () Int (select .def_8 .def_16))
(define-fun .def_77 () Bool (<= 0 .def_76))
(define-fun .def_93 () Bool (not .def_77))
(define-fun .def_154 () Bool (and .def_93 .def_152))
(define-fun .def_143 () (Array Int Int) (store .def_10 .def_16 1))
(define-fun .def_151 () Bool (= .def_143 |%{$(in_main#0)<b.2>}#2|))
(define-fun .def_153 () Bool (and .def_77 .def_151))
(define-fun .def_155 () Bool (or .def_153 .def_154))
(define-fun .def_162 () Bool (and .def_155 .def_161))
(define-fun .def_163 () Bool (and .def_75 .def_162))
(define-fun .def_172 () Bool (and .def_163 .def_171))
(define-fun .def_175 () Bool (or .def_172 .def_174))
(define-fun .def_131 () Bool (= .def_33 75))
(define-fun .def_72 () Bool (= !pc.next 0))
(define-fun .def_139 () Bool (and .def_72 .def_131))
(define-fun .def_85 () Bool (= .def_14 0))
(define-fun .def_109 () Bool (not .def_85))
(define-fun .def_68 () Bool (= .def_16 |!{$(in_main#0)<i>}.next|))
(define-fun .def_69 () Bool (and .def_67 .def_68))
(define-fun .def_128 () Bool (and .def_69 .def_109))
(define-fun .def_129 () Bool (and .def_74 .def_128))
(define-fun .def_140 () Bool (and .def_129 .def_139))
(define-fun .def_135 () Bool (= !pc.next 119))
(define-fun .def_136 () Bool (and .def_131 .def_135))
(define-fun .def_122 () Bool (and .def_61 .def_85))
(define-fun .def_123 () Bool (and .def_62 .def_122))
(define-fun .def_124 () Bool (and .def_64 .def_123))
(define-fun .def_125 () Bool (and .def_66 .def_124))
(define-fun .def_126 () Bool (and .def_68 .def_125))
(define-fun .def_127 () Bool (and .def_74 .def_126))
(define-fun .def_137 () Bool (and .def_127 .def_136))
(define-fun .def_133 () Bool (and .def_131 .def_132))
(define-fun .def_112 () Bool (= |!{$(in_main#0)<f>}.next| |%{$(in_main#0)<f>}#4|))
(define-fun .def_113 () Bool (and .def_65 .def_112))
(define-fun .def_118 () Bool (and .def_113 .def_117))
(define-fun .def_102 () Bool (= |%{$(in_main#0)<f>}#4| 0))
(define-fun .def_78 () Int (select .def_10 .def_16))
(define-fun .def_79 () Bool (= .def_78 0))
(define-fun .def_80 () Bool (not .def_79))
(define-fun .def_94 () Bool (and .def_80 .def_93))
(define-fun .def_104 () Bool (and .def_94 .def_102))
(define-fun .def_101 () Bool (= |%{$(in_main#0)<f>}#2| |%{$(in_main#0)<f>}#4|))
(define-fun .def_95 () Bool (not .def_94))
(define-fun .def_103 () Bool (and .def_95 .def_101))
(define-fun .def_105 () Bool (or .def_103 .def_104))
(define-fun .def_119 () Bool (and .def_105 .def_118))
(define-fun .def_88 () Bool (= |%{$(in_main#0)<f>}#2| 0))
(define-fun .def_81 () Bool (and .def_77 .def_79))
(define-fun .def_90 () Bool (and .def_81 .def_88))
(define-fun .def_87 () Bool (= .def_14 |%{$(in_main#0)<f>}#2|))
(define-fun .def_82 () Bool (not .def_81))
(define-fun .def_89 () Bool (and .def_82 .def_87))
(define-fun .def_91 () Bool (or .def_89 .def_90))
(define-fun .def_120 () Bool (and .def_91 .def_119))
(define-fun .def_121 () Bool (and .def_75 .def_120))
(define-fun .def_134 () Bool (and .def_121 .def_133))
(define-fun .def_138 () Bool (or .def_134 .def_137))
(define-fun .def_141 () Bool (or .def_138 .def_140))
(define-fun .def_59 () Bool (and .def_36 .def_58))
(define-fun .def_53 () Bool (= |!{$(in_main#0)<f>}.next| |%{$(in_main#0)<f>}#1|))
(define-fun .def_51 () Bool (= |!{$(in_main#0)<N>}.next| |!{$(in_main#0)<$(in___VERIFIER_nondet_int#0)<h#<__VERIFIER_nondet_int.return>>>}|))
(define-fun .def_49 () Bool (= |!{$(in_main#0)<b.2>}.next| |%{$(in_main#0)<b.2>}#1|))
(define-fun .def_48 () Bool (= |!{$(in_main#0)<a.1>}.next| |%{$(in_main#0)<a.1>}#1|))
(define-fun .def_50 () Bool (and .def_48 .def_49))
(define-fun .def_52 () Bool (and .def_50 .def_51))
(define-fun .def_54 () Bool (and .def_52 .def_53))
(define-fun .def_56 () Bool (and .def_54 .def_55))
(define-fun .def_60 () Bool (and .def_56 .def_59))
(define-fun .def_142 () Bool (or .def_60 .def_141))
(define-fun .def_176 () Bool (or .def_142 .def_175))
(define-fun .def_192 () Bool (! (or .def_176 .def_191) :trans true))
(define-fun .def_71 () Bool (= .def_33 119))
(define-fun .def_193 () Bool (! (not .def_71) :invar-property 0 :invar-property-name ||))
(assert true)
